10J3M/DAT/10J3MUNX-17.dat
10 3
2.4337 1.56
27.8622 5.2785
3.9902 1.9975
15.3512 3.9181
29.3535 5.4179
22.8993 4.7853
34.2456 5.852
38.4881 6.2039
47.0485 6.8592
28.674 5.3548
47.2272