10J3M/SOL/10J3MUNX-17.sol
solution status: optimal solution found
objective value:                     83.4487666666667
x#1#1                                               1 	(obj:0)
x#2#1                                               1 	(obj:0)
x#3#1                                               1 	(obj:0)
x#4#1                                               1 	(obj:0)
x#5#2                                               1 	(obj:0)
x#6#1                                               1 	(obj:0)
x#7#2                                               1 	(obj:0)
x#8#2                              0.0542462042380198 	(obj:0)
x#8#3                                0.94575379576198 	(obj:0)
x#9#3                                               1 	(obj:0)
x#10#1                               0.38055962428216 	(obj:0)
x#10#2                              0.619440375717839 	(obj:0)
z                                    83.4487666666667 	(obj:1)
